WARNING: for repeatability, setting FPU to use double precision
============================[ Problem Statistics ]=============================
|                                                                             |
|  Number of symmetries:          31                                          |
|  Number of invertingSyms:        0                                          |
|  Number of variables:           272                                         |
|  Number of clauses:            2193                                         |
|  Parse time:                   0.00 s                                       |
|                                                                             |
============================[ Search Statistics ]==============================
| Conflicts |          ORIGINAL         |          LEARNT          | Progress |
|           |    Vars  Clauses Literals |    Limit  Clauses Lit/Cl |          |
===============================================================================
|       100 |     272     2193     4624 |      804      100    109 |  0.001 % |
|       250 |     272     2193     4624 |      884      250    103 |  0.001 % |
|       475 |     272     2193     4624 |      972      475     89 |  0.001 % |
|       812 |     272     2193     4624 |     1070      812     78 |  0.001 % |
|      1318 |     272     2193     4624 |     1177      714     61 |  0.001 % |
|      2077 |     272     2193     4624 |     1295      868     63 |  0.001 % |
|      3216 |     272     2193     4624 |     1424     1243     82 |  0.001 % |
|      4924 |     272     2193     4624 |     1566     1430     98 |  0.001 % |
|      7486 |     272     2193     4624 |     1723     1423    107 |  0.001 % |
|     11330 |     272     2193     4624 |     1896     1566    111 |  0.001 % |
|     17096 |     272     2193     4624 |     2085     1357    110 |  0.001 % |
|     25745 |     272     2193     4624 |     2294     1249    107 |  0.001 % |
|     38719 |     272     2193     4624 |     2523     2135     87 |  0.001 % |
|     58180 |     272     2193     4624 |     2775     1601    115 |  0.001 % |
|     87372 |     272     2193     4624 |     3053     1541     88 |  0.001 % |
|    131161 |     272     2193     4624 |     3358     2076    109 |  0.001 % |
|    196845 |     272     2193     4624 |     3694     3252    112 |  0.001 % |
|    295371 |     272     2193     4624 |     4064     2200    110 |  0.001 % |
|    443160 |     272     2193     4624 |     4470     3221    108 |  0.001 % |
|    664843 |     272     2193     4624 |     4917     3366    108 |  0.001 % |
|    997368 |     272     2193     4624 |     5409     4463    106 |  0.001 % |
|   1496156 |     272     2193     4624 |     5950     3865    108 |  0.001 % |
|   2244338 |     272     2193     4624 |     6545     5728    119 |  0.001 % |
|   3366612 |     272     2193     4624 |     7200     5159    108 |  0.001 % |
|   5050023 |     272     2193     4624 |     7920     5217     83 |  0.001 % |
|   7575139 |     272     2193     4624 |     8712     7574     99 |  0.001 % |
|  11362814 |     272     2193     4624 |     9583     5934    100 |  0.001 % |
|  17044326 |     272     2193     4624 |    10541     9234     92 |  0.001 % |
|  25566595 |     272     2193     4624 |    11595     8650    104 |  0.001 % |
|  38349998 |     272     2193     4624 |    12755     9720     99 |  0.001 % |
|  57525103 |     272     2193     4624 |    14031    12113    105 |  0.001 % |
===============================================================================
restarts              : 102395
conflicts             : 79202014       (15579 /sec)
symconflicts          : 8568179        (1685 /sec)
decisions             : 129487719      (0.00 % random) (25470 /sec)
propagations          : 1496660902     (294385 /sec)
sympropagations       : 39352908       (7740 /sec)
conflict literals     : 8608259633     (8.01 % deleted)
Memory used           : 70.00 MB
CPU time              : 5084.03 s

INDETERMINATE
